p cnf 2065 2829
c 23 q(1,9)
c 24 q(2,10)
c 26 q(1,8)
c 27 q(2,9)
c 28 q(3,10)
c 30 q(1,7)
c 31 q(2,8)
c 32 q(3,9)
c 33 q(4,10)
c 35 q(1,6)
c 36 q(2,7)
c 37 q(3,8)
c 38 q(4,9)
c 39 q(5,10)
c 41 q(1,5)
c 42 q(2,6)
c 43 q(3,7)
c 44 q(4,8)
c 45 q(5,9)
c 46 q(6,10)
c 48 q(1,4)
c 49 q(2,5)
c 50 q(3,6)
c 51 q(4,7)
c 52 q(5,8)
c 53 q(6,9)
c 54 q(7,10)
c 56 q(1,3)
c 57 q(2,4)
c 58 q(3,5)
c 59 q(4,6)
c 60 q(5,7)
c 61 q(6,8)
c 62 q(7,9)
c 63 q(8,10)
c 65 q(1,2)
c 66 q(2,3)
c 67 q(3,4)
c 68 q(4,5)
c 69 q(5,6)
c 70 q(6,7)
c 71 q(7,8)
c 72 q(8,9)
c 73 q(9,10)
c 75 q(1,1)
c 76 q(2,2)
c 77 q(3,3)
c 78 q(4,4)
c 79 q(5,5)
c 80 q(6,6)
c 81 q(7,7)
c 82 q(8,8)
c 83 q(9,9)
c 84 q(10,10)
c 86 q(2,1)
c 87 q(3,2)
c 88 q(4,3)
c 89 q(5,4)
c 90 q(6,5)
c 91 q(7,6)
c 92 q(8,7)
c 93 q(9,8)
c 94 q(10,9)
c 96 q(3,1)
c 97 q(4,2)
c 98 q(5,3)
c 99 q(6,4)
c 100 q(7,5)
c 101 q(8,6)
c 102 q(9,7)
c 103 q(10,8)
c 105 q(4,1)
c 106 q(5,2)
c 107 q(6,3)
c 108 q(7,4)
c 109 q(8,5)
c 110 q(9,6)
c 111 q(10,7)
c 113 q(5,1)
c 114 q(6,2)
c 115 q(7,3)
c 116 q(8,4)
c 117 q(9,5)
c 118 q(10,6)
c 120 q(6,1)
c 121 q(7,2)
c 122 q(8,3)
c 123 q(9,4)
c 124 q(10,5)
c 126 q(7,1)
c 127 q(8,2)
c 128 q(9,3)
c 129 q(10,4)
c 131 q(8,1)
c 132 q(9,2)
c 133 q(10,3)
c 135 q(9,1)
c 136 q(10,2)
c 146 q(1,10)
c 147 q(10,1)
2 0
3 0
4 0
5 0
6 0
7 0
8 0
9 0
10 0
11 0
12 0
13 0
14 0
15 0
16 0
17 0
18 0
19 0
20 0
21 0
-22 0
-25 0
-29 0
-34 0
-40 0
-47 0
-55 0
-64 0
-74 0
-85 0
-95 0
-104 0
-112 0
-119 0
-125 0
-130 0
-134 0
-137 0
-138 0
-139 0
-140 0
-141 0
-142 0
-143 0
-144 0
-145 0
-148 0
-149 0
-150 0
-151 0
-152 0
-153 0
-154 0
-155 0
332 0
158 0
156 0
-157 0
353 0
161 0
159 0
-160 0
374 0
164 0
162 0
-163 0
395 0
167 0
165 0
-166 0
416 0
170 0
168 0
-169 0
437 0
173 0
171 0
-172 0
458 0
176 0
174 0
-175 0
479 0
179 0
177 0
-178 0
500 0
182 0
180 0
-181 0
521 0
185 0
183 0
-184 0
542 0
188 0
186 0
-187 0
563 0
191 0
189 0
-190 0
584 0
194 0
192 0
-193 0
605 0
197 0
195 0
-196 0
626 0
200 0
198 0
-199 0
647 0
203 0
201 0
-202 0
668 0
206 0
204 0
-205 0
689 0
209 0
207 0
-208 0
710 0
212 0
210 0
-211 0
731 0
215 0
213 0
-214 0
-1 0
-752 0
-753 0
-754 0
-755 0
-756 0
-757 0
-758 0
-759 0
-760 0
-761 0
-762 0
-763 0
-764 0
-765 0
-766 0
-767 0
-768 0
-769 0
-770 0
-771 0
-772 0
-773 0
-774 0
-775 0
-776 0
-777 0
-778 0
-779 0
-780 0
-781 0
-782 0
-783 0
-784 0
-785 0
-786 0
-789 0
-792 0
-795 0
-798 0
-801 0
-802 0
-805 0
-808 0
-811 0
-814 0
-817 0
-820 0
-821 0
-824 0
-827 0
-830 0
-833 0
-836 0
-839 0
-842 0
-843 0
-846 0
-849 0
-852 0
-855 0
-858 0
-861 0
-864 0
-867 0
-868 0
-871 0
-874 0
-877 0
-880 0
-883 0
-886 0
-889 0
-890 0
-893 0
-896 0
-899 0
-902 0
-905 0
-908 0
-909 0
-912 0
-915 0
-918 0
-921 0
-924 0
-925 0
-926 0
-927 0
-928 0
-929 0
-930 0
-931 0
-932 0
-933 0
-934 0
-935 0
-936 0
-937 0
-938 0
-939 0
-940 0
-941 0
-942 0
-943 0
-944 0
-945 0
-946 0
-947 0
-948 0
-949 0
-950 0
-951 0
-952 0
-953 0
-954 0
-955 0
-956 0
-957 0
-958 0
-959 0
-960 0
-961 0
-962 0
-963 0
-964 0
-965 0
-966 0
-967 0
-968 0
-969 0
-970 0
-971 0
-972 0
-973 0
-974 0
-975 0
-976 0
-977 0
-978 0
-979 0
-980 0
-981 0
-982 0
-983 0
-984 0
-985 0
-986 0
-987 0
-988 0
-989 0
-990 0
-991 0
-992 0
-993 0
-996 0
-999 0
-1002 0
-1005 0
-1008 0
-1009 0
-1012 0
-1015 0
-1018 0
-1021 0
-1024 0
-1027 0
-1028 0
-1031 0
-1034 0
-1037 0
-1040 0
-1043 0
-1046 0
-1049 0
-1050 0
-1053 0
-1056 0
-1059 0
-1062 0
-1065 0
-1068 0
-1071 0
-1074 0
-1075 0
-1078 0
-1081 0
-1084 0
-1087 0
-1090 0
-1093 0
-1096 0
-1097 0
-1100 0
-1103 0
-1106 0
-1109 0
-1112 0
-1115 0
-1116 0
-1119 0
-1122 0
-1125 0
-1128 0
-1131 0
-1132 0
-1133 0
-1134 0
-1135 0
-1136 0
-1137 0
-1138 0
-1139 0
-1140 0
-1141 0
-1142 0
-1143 0
-1144 0
-1145 0
-1146 0
-1147 0
-1148 0
-1149 0
-1150 0
-1151 0
-1152 0
-1153 0
-1154 0
-1155 0
-1156 0
-1157 0
-1158 0
-1159 0
-1160 0
-1161 0
-1162 0
-1163 0
-1164 0
-1165 0
-1186 0
-1189 0
-1192 0
-1195 0
-1198 0
-1201 0
-1204 0
-1207 0
-1210 0
-1231 0
-1234 0
-1237 0
-1240 0
-1243 0
-1246 0
-1249 0
-1252 0
-1255 0
-1276 0
-1279 0
-1282 0
-1285 0
-1288 0
-1291 0
-1294 0
-1297 0
-1300 0
-1321 0
-1324 0
-1327 0
-1330 0
-1333 0
-1336 0
-1339 0
-1342 0
-1345 0
-1366 0
-1369 0
-1372 0
-1375 0
-1378 0
-1381 0
-1384 0
-1387 0
-1390 0
-1411 0
-1414 0
-1417 0
-1420 0
-1423 0
-1426 0
-1429 0
-1432 0
-1435 0
-1456 0
-1459 0
-1462 0
-1465 0
-1468 0
-1471 0
-1474 0
-1477 0
-1480 0
-1501 0
-1504 0
-1507 0
-1510 0
-1513 0
-1516 0
-1519 0
-1522 0
-1525 0
-1546 0
-1549 0
-1552 0
-1555 0
-1558 0
-1561 0
-1564 0
-1567 0
-1570 0
-1591 0
-1594 0
-1597 0
-1600 0
-1603 0
-1606 0
-1609 0
-1612 0
-1615 0
-1636 0
-1639 0
-1642 0
-1645 0
-1648 0
-1651 0
-1654 0
-1657 0
-1660 0
-1681 0
-1684 0
-1687 0
-1690 0
-1693 0
-1696 0
-1699 0
-1702 0
-1705 0
-1726 0
-1729 0
-1732 0
-1735 0
-1738 0
-1741 0
-1744 0
-1747 0
-1750 0
-1771 0
-1774 0
-1777 0
-1780 0
-1783 0
-1786 0
-1789 0
-1792 0
-1795 0
-1816 0
-1819 0
-1822 0
-1825 0
-1828 0
-1831 0
-1834 0
-1837 0
-1840 0
-1861 0
-1864 0
-1867 0
-1870 0
-1873 0
-1876 0
-1879 0
-1882 0
-1885 0
-1906 0
-1909 0
-1912 0
-1915 0
-1918 0
-1921 0
-1924 0
-1927 0
-1930 0
-1951 0
-1954 0
-1957 0
-1960 0
-1963 0
-1966 0
-1969 0
-1972 0
-1975 0
-1996 0
-1999 0
-2002 0
-2005 0
-2008 0
-2011 0
-2014 0
-2017 0
-2020 0
-2041 0
-2044 0
-2047 0
-2050 0
-2053 0
-2056 0
-2059 0
-2062 0
-2065 0
-222 0
-230 0
-239 0
-249 0
-258 0
-266 0
-273 0
-280 0
-288 0
-297 0
-307 0
-316 0
-324 0
-331 0
-352 0
-373 0
-394 0
-415 0
-436 0
-457 0
-478 0
-499 0
-520 0
-541 0
-562 0
-583 0
-604 0
-625 0
-646 0
-667 0
-688 0
-709 0
-730 0
-751 0
-2040 0
-2039 0
-2038 0
-2037 0
-2036 0
-2035 0
-2034 0
-2033 0
-2032 0
-2031 0
-1995 0
-1994 0
-1993 0
-1992 0
-1991 0
-1990 0
-1989 0
-1988 0
-1987 0
-1986 0
-1950 0
-1949 0
-1948 0
-1947 0
-1946 0
-1945 0
-1944 0
-1943 0
-1942 0
-1941 0
-1905 0
-1904 0
-1903 0
-1902 0
-1901 0
-1900 0
-1899 0
-1898 0
-1897 0
-1896 0
-1860 0
-1859 0
-1858 0
-1857 0
-1856 0
-1855 0
-1854 0
-1853 0
-1852 0
-1851 0
-1815 0
-1814 0
-1813 0
-1812 0
-1811 0
-1810 0
-1809 0
-1808 0
-1807 0
-1806 0
-1770 0
-1769 0
-1768 0
-1767 0
-1766 0
-1765 0
-1764 0
-1763 0
-1762 0
-1761 0
-1725 0
-1724 0
-1723 0
-1722 0
-1721 0
-1720 0
-1719 0
-1718 0
-1717 0
-1716 0
-1680 0
-1679 0
-1678 0
-1677 0
-1676 0
-1675 0
-1674 0
-1673 0
-1672 0
-1671 0
-1635 0
-1634 0
-1633 0
-1632 0
-1631 0
-1630 0
-1629 0
-1628 0
-1627 0
-1626 0
-1590 0
-1589 0
-1588 0
-1587 0
-1586 0
-1585 0
-1584 0
-1583 0
-1582 0
-1581 0
-1545 0
-1544 0
-1543 0
-1542 0
-1541 0
-1540 0
-1539 0
-1538 0
-1537 0
-1536 0
-1500 0
-1499 0
-1498 0
-1497 0
-1496 0
-1495 0
-1494 0
-1493 0
-1492 0
-1491 0
-1455 0
-1454 0
-1453 0
-1452 0
-1451 0
-1450 0
-1449 0
-1448 0
-1447 0
-1446 0
-1410 0
-1409 0
-1408 0
-1407 0
-1406 0
-1405 0
-1404 0
-1403 0
-1402 0
-1401 0
-1365 0
-1364 0
-1363 0
-1362 0
-1361 0
-1360 0
-1359 0
-1358 0
-1357 0
-1356 0
-1320 0
-1319 0
-1318 0
-1317 0
-1316 0
-1315 0
-1314 0
-1313 0
-1312 0
-1311 0
-1275 0
-1274 0
-1273 0
-1272 0
-1271 0
-1270 0
-1269 0
-1268 0
-1267 0
-1266 0
-1230 0
-1229 0
-1228 0
-1227 0
-1226 0
-1225 0
-1224 0
-1223 0
-1222 0
-1221 0
-1185 0
-1184 0
-1183 0
-1182 0
-1181 0
-1180 0
-1179 0
-1178 0
-1177 0
-1176 0
-2030 0
-2029 0
-2028 0
-2027 0
-2026 0
-2025 0
-2024 0
-2023 0
-2022 0
-2021 0
-1985 0
-1984 0
-1983 0
-1982 0
-1981 0
-1980 0
-1979 0
-1978 0
-1977 0
-1976 0
-1940 0
-1939 0
-1938 0
-1937 0
-1936 0
-1935 0
-1934 0
-1933 0
-1932 0
-1931 0
-1895 0
-1894 0
-1893 0
-1892 0
-1891 0
-1890 0
-1889 0
-1888 0
-1887 0
-1886 0
-1850 0
-1849 0
-1848 0
-1847 0
-1846 0
-1845 0
-1844 0
-1843 0
-1842 0
-1841 0
-1805 0
-1804 0
-1803 0
-1802 0
-1801 0
-1800 0
-1799 0
-1798 0
-1797 0
-1796 0
-1760 0
-1759 0
-1758 0
-1757 0
-1756 0
-1755 0
-1754 0
-1753 0
-1752 0
-1751 0
-1715 0
-1714 0
-1713 0
-1712 0
-1711 0
-1710 0
-1709 0
-1708 0
-1707 0
-1706 0
-1670 0
-1669 0
-1668 0
-1667 0
-1666 0
-1665 0
-1664 0
-1663 0
-1662 0
-1661 0
-1625 0
-1624 0
-1623 0
-1622 0
-1621 0
-1620 0
-1619 0
-1618 0
-1617 0
-1616 0
-1580 0
-1579 0
-1578 0
-1577 0
-1576 0
-1575 0
-1574 0
-1573 0
-1572 0
-1571 0
-1535 0
-1534 0
-1533 0
-1532 0
-1531 0
-1530 0
-1529 0
-1528 0
-1527 0
-333 0
-334 0
-335 0
-336 0
-337 0
-338 0
-339 0
-340 0
-341 0
-342 0
-1526 0
-354 0
-355 0
-356 0
-357 0
-358 0
-359 0
-360 0
-361 0
-362 0
-363 0
-1490 0
-375 0
-376 0
-377 0
-378 0
-379 0
-380 0
-381 0
-382 0
-383 0
-384 0
-1489 0
-396 0
-397 0
-398 0
-399 0
-400 0
-401 0
-402 0
-403 0
-404 0
-405 0
-1488 0
-417 0
-418 0
-419 0
-420 0
-421 0
-422 0
-423 0
-424 0
-425 0
-426 0
-1487 0
-438 0
-439 0
-440 0
-441 0
-442 0
-443 0
-444 0
-445 0
-446 0
-447 0
-1486 0
-459 0
-460 0
-461 0
-462 0
-463 0
-464 0
-465 0
-466 0
-467 0
-468 0
-1485 0
-480 0
-481 0
-482 0
-483 0
-484 0
-485 0
-486 0
-487 0
-488 0
-489 0
-1484 0
-501 0
-502 0
-503 0
-504 0
-505 0
-506 0
-507 0
-508 0
-509 0
-510 0
-1483 0
-522 0
-523 0
-524 0
-525 0
-526 0
-527 0
-528 0
-529 0
-530 0
-531 0
-1482 0
-543 0
-544 0
-545 0
-546 0
-547 0
-548 0
-549 0
-550 0
-551 0
-552 0
-1481 0
-564 0
-565 0
-566 0
-567 0
-568 0
-569 0
-570 0
-571 0
-572 0
-573 0
-1445 0
-585 0
-586 0
-587 0
-588 0
-589 0
-590 0
-591 0
-592 0
-593 0
-594 0
-1444 0
-606 0
-607 0
-608 0
-609 0
-610 0
-611 0
-612 0
-613 0
-614 0
-615 0
-1443 0
-627 0
-628 0
-629 0
-630 0
-631 0
-632 0
-633 0
-634 0
-635 0
-636 0
-1442 0
-648 0
-649 0
-650 0
-651 0
-652 0
-653 0
-654 0
-655 0
-656 0
-657 0
-1441 0
-669 0
-670 0
-671 0
-672 0
-673 0
-674 0
-675 0
-676 0
-677 0
-678 0
-1440 0
-690 0
-691 0
-692 0
-693 0
-694 0
-695 0
-696 0
-697 0
-698 0
-699 0
-1439 0
-711 0
-712 0
-713 0
-714 0
-715 0
-716 0
-717 0
-718 0
-719 0
-720 0
-1438 0
-732 0
-733 0
-734 0
-735 0
-736 0
-737 0
-738 0
-739 0
-740 0
-741 0
-1437 0
-1436 0
-1400 0
-1399 0
-1398 0
-1397 0
-1396 0
-1395 0
-1394 0
-1393 0
-1392 0
-1391 0
-1355 0
-1354 0
-1353 0
-1352 0
-1351 0
-1350 0
-1349 0
-1348 0
-1347 0
-1346 0
-1310 0
-1309 0
-1308 0
-1307 0
-1306 0
-1305 0
-1304 0
-1303 0
-1302 0
-1301 0
-1265 0
-1264 0
-1263 0
-1262 0
-1261 0
-1260 0
-1259 0
-1258 0
-1257 0
-1256 0
-1220 0
-1219 0
-1218 0
-1217 0
-1216 0
-1215 0
-1214 0
-1213 0
-1212 0
-1211 0
-1175 0
-1174 0
-1173 0
-1172 0
-1171 0
-1170 0
-1169 0
-1168 0
-1167 0
-1166 0
-2064 0
-2063 0
-2061 0
-2060 0
-2058 0
-2057 0
-2055 0
-2054 0
-2052 0
-2051 0
-2049 0
-2048 0
-2046 0
-2045 0
-2043 0
-2042 0
-2019 0
-2018 0
-2016 0
-2015 0
-2013 0
-2012 0
-2010 0
-2009 0
-2007 0
-2006 0
-2004 0
-2003 0
-2001 0
-2000 0
-1998 0
-1997 0
-1974 0
-1973 0
-1971 0
-1970 0
-1968 0
-1967 0
-1965 0
-1964 0
-1962 0
-1961 0
-1959 0
-1958 0
-1956 0
-1955 0
-1953 0
-1952 0
-1929 0
-1928 0
-1926 0
-1925 0
-1923 0
-1922 0
-1920 0
-1919 0
-1917 0
-1916 0
-1914 0
-1913 0
-1911 0
-1910 0
-1908 0
-1907 0
-1884 0
-1883 0
-1881 0
-1880 0
-1878 0
-1877 0
-1875 0
-1874 0
-1872 0
-1871 0
-1869 0
-1868 0
-1866 0
-1865 0
-1863 0
-1862 0
-1839 0
-1838 0
-1836 0
-1835 0
-1833 0
-1832 0
-1830 0
-1829 0
-1827 0
-1826 0
-1824 0
-1823 0
-1821 0
-1820 0
-1818 0
-1817 0
-1794 0
-1793 0
-1791 0
-1790 0
-1788 0
-1787 0
-1785 0
-1784 0
-1782 0
-1781 0
-1779 0
-1778 0
-1776 0
-1775 0
-1773 0
-1772 0
-1749 0
-1748 0
-1746 0
-1745 0
-1743 0
-1742 0
-1740 0
-1739 0
-1737 0
-1736 0
-1734 0
-1733 0
-1731 0
-1187 0
-1188 0
-1190 0
-1191 0
-1193 0
-1194 0
-1196 0
-1197 0
-1199 0
-1200 0
-1202 0
-1203 0
-1205 0
-1206 0
-1208 0
-1209 0
-1730 0
-1728 0
-1727 0
-1704 0
-1703 0
-1701 0
-1700 0
-1698 0
-1697 0
-1695 0
-1232 0
-1233 0
-1235 0
-1236 0
-1238 0
-1239 0
-1241 0
-1242 0
-1244 0
-1245 0
-1247 0
-1248 0
-1250 0
-1251 0
-1253 0
-1254 0
-1694 0
-1692 0
-1691 0
-1689 0
-1688 0
-1686 0
-1685 0
-1683 0
-1682 0
-343 0
-1277 0
-1278 0
-1280 0
-1281 0
-1283 0
-1284 0
-1286 0
-1287 0
-1289 0
-1290 0
-1292 0
-1293 0
-1295 0
-1296 0
-1298 0
-1299 0
-364 0
-385 0
-1659 0
-1658 0
-1656 0
-1655 0
-1653 0
-1652 0
-1650 0
-1649 0
-1322 0
-406 0
-1325 0
-1326 0
-1328 0
-1329 0
-1331 0
-1332 0
-1334 0
-1335 0
-1337 0
-1338 0
-1340 0
-1341 0
-1343 0
-1344 0
-1323 0
-1647 0
-1646 0
-1644 0
-1643 0
-1641 0
-1640 0
-1638 0
-1637 0
-553 0
-1367 0
-427 0
-1370 0
-1371 0
-1373 0
-1374 0
-1376 0
-1377 0
-1379 0
-1380 0
-1382 0
-1383 0
-1385 0
-1386 0
-1388 0
-1389 0
-1368 0
-574 0
-595 0
-616 0
-637 0
-658 0
-1614 0
-1613 0
-1611 0
-1610 0
-1412 0
-448 0
-1415 0
-1416 0
-1418 0
-1419 0
-1421 0
-1422 0
-1424 0
-1425 0
-1427 0
-1428 0
-1430 0
-1431 0
-1433 0
-1434 0
-1413 0
-1608 0
-750 0
-729 0
-708 0
-687 0
-666 0
-645 0
-624 0
-603 0
-1457 0
-469 0
-1460 0
-1461 0
-1463 0
-1464 0
-1466 0
-1467 0
-1469 0
-1470 0
-1472 0
-1473 0
-1475 0
-1476 0
-1478 0
-1479 0
-582 0
-561 0
-540 0
-519 0
-498 0
-477 0
-456 0
-435 0
-414 0
-393 0
-1502 0
-1503 0
-1505 0
-1506 0
-1508 0
-1509 0
-1511 0
-1512 0
-1514 0
-1515 0
-1517 0
-1518 0
-1520 0
-1521 0
-1523 0
-1524 0
-372 0
-351 0
-490 0
-1458 0
-1607 0
-1605 0
-1604 0
-1602 0
-1601 0
-1599 0
-1547 0
-511 0
-1550 0
-1551 0
-1553 0
-1554 0
-1556 0
-1557 0
-1559 0
-1560 0
-1562 0
-1563 0
-1565 0
-1566 0
-1568 0
-1569 0
-1548 0
-1598 0
-1596 0
-1595 0
-1593 0
-1592 0
-532 0
-721 0
-700 0
-679 0
-742 0
-344 0
-229 0
-819 0
-818 0
-238 0
-841 0
-840 0
-272 0
-922 0
-923 0
-296 0
-1047 0
-1048 0
-787 0
-793 0
-794 0
-796 0
-797 0
-799 0
-800 0
-803 0
-221 0
-265 0
-906 0
-907 0
-323 0
-1113 0
-1114 0
-807 0
-812 0
-813 0
-815 0
-816 0
-257 0
-887 0
-888 0
-822 0
-826 0
-828 0
-829 0
-831 0
-788 0
-804 0
-248 0
-866 0
-865 0
-832 0
-346 0
-348 0
-350 0
-365 0
-837 0
-838 0
-287 0
-1025 0
-1026 0
-279 0
-1006 0
-1007 0
-847 0
-851 0
-853 0
-854 0
-856 0
-857 0
-859 0
-860 0
-367 0
-369 0
-371 0
-386 0
-388 0
-390 0
-392 0
-407 0
-409 0
-411 0
-862 0
-863 0
-835 0
-834 0
-869 0
-870 0
-872 0
-873 0
-875 0
-876 0
-878 0
-879 0
-881 0
-882 0
-1130 0
-1129 0
-749 0
-413 0
-747 0
-428 0
-745 0
-430 0
-743 0
-728 0
-432 0
-726 0
-1127 0
-1126 0
-1124 0
-1123 0
-1121 0
-1120 0
-1118 0
-1117 0
-810 0
-809 0
-1111 0
-1110 0
-1108 0
-1107 0
-1105 0
-1104 0
-434 0
-724 0
-449 0
-722 0
-707 0
-451 0
-705 0
-453 0
-703 0
-455 0
-1102 0
-1101 0
-1099 0
-1098 0
-1095 0
-1094 0
-1092 0
-1091 0
-1089 0
-1088 0
-1086 0
-1085 0
-1083 0
-1082 0
-1080 0
-1079 0
-701 0
-686 0
-470 0
-684 0
-472 0
-682 0
-474 0
-680 0
-665 0
-476 0
-1077 0
-1076 0
-1073 0
-1072 0
-1070 0
-1069 0
-1067 0
-1066 0
-1064 0
-1063 0
-1061 0
-1060 0
-1058 0
-1057 0
-1055 0
-1054 0
-663 0
-491 0
-661 0
-493 0
-659 0
-644 0
-495 0
-642 0
-497 0
-640 0
-1052 0
-1051 0
-791 0
-790 0
-1045 0
-1044 0
-1042 0
-1041 0
-1039 0
-1038 0
-1036 0
-1035 0
-1033 0
-1032 0
-1030 0
-1029 0
-512 0
-638 0
-623 0
-514 0
-621 0
-516 0
-619 0
-518 0
-617 0
-602 0
-845 0
-844 0
-1023 0
-1022 0
-1020 0
-1019 0
-1017 0
-1016 0
-1014 0
-1013 0
-1011 0
-1010 0
-850 0
-848 0
-1004 0
-1003 0
-533 0
-600 0
-535 0
-598 0
-537 0
-596 0
-581 0
-539 0
-579 0
-884 0
-1001 0
-1000 0
-998 0
-997 0
-995 0
-994 0
-315 0
-306 0
-920 0
-919 0
-917 0
-916 0
-914 0
-913 0
-911 0
-910 0
-577 0
-885 0
-575 0
-560 0
-823 0
-558 0
-825 0
-556 0
-891 0
-554 0
-806 0
-330 0
-904 0
-903 0
-901 0
-900 0
-898 0
-897 0
-895 0
-894 0
-892 0
-220 0
-228 0
-237 0
-247 0
-256 0
-264 0
-271 0
-278 0
-286 0
-295 0
-305 0
-314 0
-322 0
-329 0
-325 0
-317 0
-308 0
-298 0
-289 0
-281 0
-274 0
-267 0
-259 0
-250 0
-240 0
-231 0
-223 0
-216 0
-219 0
-227 0
-236 0
-246 0
-255 0
-263 0
-270 0
-277 0
-285 0
-294 0
-304 0
-313 0
-321 0
-328 0
-217 0
-326 0
-319 0
-224 0
-311 0
-309 0
-232 0
-302 0
-234 0
-300 0
-292 0
-241 0
-290 0
-243 0
-283 0
-275 0
-251 0
-268 0
-253 0
-261 0
-318 0
-225 0
-299 0
-282 0
-244 0
-260 0
-23 -24 0
-27 -26 0
-28 -26 0
-27 -28 0
-31 -30 0
-30 -32 0
-30 -33 0
-31 -32 0
-31 -33 0
-33 -32 0
-36 -35 0
-37 -35 0
-35 -38 0
-35 -39 0
-37 -36 0
-36 -38 0
-36 -39 0
-37 -38 0
-37 -39 0
-39 -38 0
-41 -42 0
-43 -41 0
-44 -41 0
-45 -41 0
-41 -46 0
-43 -42 0
-44 -42 0
-45 -42 0
-42 -46 0
-43 -44 0
-45 -43 0
-43 -46 0
-45 -44 0
-44 -46 0
-45 -46 0
-50 -49 0
-50 -48 0
-218 48 50 49 0
-48 218 0
-51 -218 0
-51 -54 0
-218 -52 0
-52 -54 0
-51 -53 0
-52 -53 0
-54 -53 0
-58 -57 0
-58 -56 0
-59 -58 0
-59 -57 0
-226 56 58 59 57 0
-59 -56 0
-226 -60 0
-63 -60 0
-226 -61 0
-60 -62 0
-61 -62 0
-63 -62 0
-66 -67 0
-65 -67 0
-233 65 67 66 0
-65 233 0
-68 -233 0
-68 235 0
-69 -233 0
235 -233 0
-70 -235 0
-73 -235 0
-70 -71 0
-235 -72 0
-71 -72 0
-73 -72 0
-242 75 77 76 0
-75 -77 0
242 -76 0
-242 -78 0
-79 -78 0
-80 -79 0
-80 -78 0
-245 242 78 80 79 0
-80 -242 0
-245 -81 0
-81 -84 0
-245 -82 0
-81 -83 0
-83 -82 0
-84 -83 0
-88 -87 0
-86 -88 0
-252 87 88 86 0
-86 252 0
-89 -252 0
-89 254 0
-252 -90 0
254 -252 0
-91 -254 0
-91 -94 0
-254 -92 0
-91 -93 0
-92 -93 0
-94 -93 0
262 -97 0
-96 262 0
-96 -98 0
-96 -99 0
-98 262 0
-100 -262 0
-103 -262 0
-100 -101 0
-101 -102 0
-262 -102 0
-103 -102 0
-269 105 107 106 0
-105 -107 0
269 -106 0
-108 -269 0
-111 -269 0
-108 -109 0
-109 -110 0
-269 -110 0
-111 -110 0
-114 -113 0
-115 -113 0
-113 -116 0
-117 -113 0
-113 -118 0
-114 -115 0
-114 -116 0
-114 -117 0
-114 -118 0
-115 -116 0
-115 -117 0
-115 -118 0
-117 -116 0
-116 -118 0
-117 -118 0
-121 -120 0
-122 -120 0
-120 -123 0
-124 -120 0
-122 -121 0
-121 -123 0
-121 -124 0
-122 -123 0
-122 -124 0
-124 -123 0
-126 -127 0
-126 -128 0
-126 -129 0
-127 -128 0
-129 -127 0
-129 -128 0
-131 -132 0
-133 -131 0
-133 -132 0
-135 -136 0
-86 -65 0
-76 -56 0
-96 -56 0
-96 -76 0
-48 -66 0
-48 -87 0
-105 -48 0
-66 -87 0
-105 -66 0
-105 -87 0
-57 -41 0
-77 -41 0
-41 -97 0
-41 -113 0
-77 -57 0
-57 -97 0
-57 -113 0
-77 -97 0
-77 -113 0
-113 -97 0
-49 -35 0
-67 -35 0
-88 -35 0
-35 -106 0
-120 -35 0
-49 -67 0
-49 -88 0
-49 -106 0
-49 -120 0
-88 -67 0
-67 -106 0
-67 -120 0
-88 -106 0
-88 -120 0
-120 -106 0
-276 30 58 42 0
-58 -30 0
276 -42 0
-78 -276 0
-126 -276 0
-98 -78 0
-98 -114 0
-276 -114 0
-126 -114 0
284 -26 0
-284 26 68 36 50 0
-50 -36 0
-68 -36 0
-50 284 0
-89 -284 0
-131 -284 0
-89 -107 0
-107 -121 0
-284 -121 0
-131 -121 0
-291 31 43 23 0
-23 -43 0
-31 291 0
-59 -291 0
-293 291 59 79 0
-59 293 0
-99 -293 0
-135 -293 0
-99 -115 0
-127 -115 0
-293 -127 0
-135 -127 0
301 -146 0
-301 27 51 37 146 0
-27 -37 0
-51 -27 0
301 -37 0
-301 -69 0
301 -303 90 69 0
303 -69 0
-108 -303 0
-303 -147 0
-108 -122 0
-303 -122 0
-132 -122 0
-147 -132 0
-303 -132 0
-310 32 24 44 0
-24 -44 0
310 -32 0
-310 -60 0
-312 310 80 60 0
312 -60 0
-100 -312 0
-312 -136 0
-100 -116 0
-312 -116 0
-128 -116 0
-136 -128 0
-312 -128 0
320 -28 0
-320 38 70 28 52 0
-52 -38 0
-70 -38 0
-52 320 0
-91 -320 0
-133 -320 0
-91 -109 0
-109 -123 0
-320 -123 0
-133 -123 0
-327 45 33 61 0
-61 -33 0
327 -45 0
-81 -327 0
-129 -327 0
-101 -81 0
-101 -327 0
-101 -117 0
-129 -117 0
-327 -117 0
-53 -39 0
-71 -39 0
-92 -39 0
-110 -39 0
-124 -39 0
-53 -71 0
-92 -53 0
-53 -110 0
-124 -53 0
-92 -71 0
-110 -71 0
-124 -71 0
-92 -110 0
-92 -124 0
-124 -110 0
-62 -46 0
-82 -46 0
-102 -46 0
-118 -46 0
-82 -62 0
-102 -62 0
-62 -118 0
-82 -102 0
-82 -118 0
-102 -118 0
-54 -72 0
-54 -93 0
-111 -54 0
-93 -72 0
-111 -72 0
-111 -93 0
-63 -83 0
-103 -63 0
-103 -83 0
-94 -73 0
26 35 56 146 23 30 41 48 65 75 0
-75 -56 0
-65 345 0
-48 -345 0
-48 347 0
-347 -35 0
349 -35 0
-349 -26 0
-146 -26 0
-23 -26 0
27 31 66 24 36 42 49 57 76 86 0
-86 -66 0
-76 366 0
-366 -57 0
368 -57 0
-368 -42 0
370 -42 0
-31 -370 0
-31 -24 0
-31 -27 0
32 50 77 28 37 67 43 87 96 58 0
-96 -77 0
387 -87 0
-387 -67 0
389 -67 0
-50 -389 0
-50 391 0
-391 -37 0
-28 -37 0
-32 -37 0
88 38 33 44 59 78 51 105 97 68 0
408 -97 0
-105 408 0
-408 -78 0
410 -78 0
-410 -59 0
412 -59 0
-412 -44 0
-33 -44 0
-44 -38 0
98 52 69 39 45 60 89 79 106 113 0
429 -106 0
429 -113 0
-89 -429 0
-89 431 0
-69 -431 0
-69 433 0
-52 -433 0
-52 -39 0
-52 -45 0
107 53 46 61 80 99 70 114 120 90 0
450 -114 0
450 -120 0
-99 -450 0
-99 452 0
-80 -452 0
-80 454 0
-61 -454 0
-61 -46 0
-61 -53 0
115 91 54 71 62 81 108 100 121 126 0
471 -121 0
-126 471 0
-108 -471 0
-108 473 0
-91 -473 0
-91 475 0
-475 -71 0
-54 -71 0
-62 -71 0
63 122 72 82 101 116 92 131 109 127 0
-131 -122 0
492 -127 0
-492 -116 0
494 -116 0
-494 -101 0
-101 496 0
-496 -82 0
-63 -82 0
-82 -72 0
128 73 93 83 102 110 117 123 135 132 0
-132 513 0
-135 513 0
-513 -123 0
515 -123 0
-515 -110 0
517 -110 0
-517 -93 0
-73 -93 0
-83 -93 0
133 111 84 94 103 118 124 129 147 136 0
-133 -147 0
-136 534 0
-129 -534 0
536 -129 0
-536 -118 0
538 -118 0
-103 -538 0
-103 -84 0
-94 -84 0
96 120 131 126 105 86 135 113 75 147 0
-75 -96 0
-86 555 0
-105 -555 0
-105 557 0
-557 -120 0
559 -120 0
-131 -559 0
-131 -147 0
-147 -135 0
97 121 65 136 106 114 132 76 127 87 0
-65 -87 0
-76 576 0
-576 -97 0
578 -97 0
-578 -114 0
580 -114 0
-580 -127 0
-136 -127 0
-132 -136 0
88 133 122 66 115 107 128 98 77 56 0
-77 -56 0
-66 597 0
-597 -88 0
599 -88 0
-107 -599 0
-107 601 0
-601 -122 0
-133 -122 0
-133 -128 0
129 78 57 116 108 123 89 99 67 48 0
-48 -67 0
618 -57 0
-78 -618 0
-78 620 0
-99 -620 0
-99 622 0
-622 -116 0
-129 -116 0
-129 -123 0
49 124 117 90 68 79 100 109 58 41 0
-58 -41 0
639 -49 0
-639 -68 0
641 -68 0
-90 -641 0
643 -90 0
-109 -643 0
-109 -124 0
-124 -117 0
35 50 101 80 91 69 42 59 118 110 0
-50 -35 0
660 -42 0
-59 -660 0
-59 662 0
-80 -662 0
-80 664 0
-101 -664 0
-101 -118 0
-110 -118 0
36 51 92 81 111 43 102 70 30 60 0
-30 -43 0
681 -36 0
-51 -681 0
-51 683 0
-683 -70 0
685 -70 0
-685 -92 0
-111 -92 0
-111 -102 0
31 44 103 82 61 52 37 71 93 26 0
-26 -37 0
-31 702 0
-702 -44 0
704 -44 0
-704 -61 0
706 -61 0
-706 -82 0
-103 -82 0
-103 -93 0
45 38 94 83 62 53 72 27 32 23 0
-23 -32 0
-27 723 0
-723 -38 0
725 -38 0
-725 -53 0
727 -53 0
-727 -72 0
-94 -72 0
-94 -83 0
63 73 46 54 33 146 39 24 28 84 0
-28 -146 0
-24 744 0
-33 -744 0
-33 746 0
-746 -46 0
748 -46 0
-63 -748 0
-84 -63 0
-73 -84 0
-48 -49 0
218 -49 0
-50 218 0
-218 -53 0
-218 -54 0
-51 -52 0
-57 -56 0
226 -57 0
226 -56 0
226 -58 0
-59 226 0
-226 -62 0
-226 -63 0
-61 -63 0
-61 -60 0
-66 -65 0
-66 233 0
233 -67 0
-235 233 69 68 0
-69 -68 0
-69 235 0
-70 -73 0
-70 -72 0
-73 -71 0
-235 -71 0
-75 -76 0
-75 242 0
-76 -77 0
242 -77 0
-79 -242 0
245 -78 0
245 -242 0
-79 245 0
-80 245 0
-245 -83 0
-245 -84 0
-84 -82 0
-81 -82 0
-86 -87 0
252 -87 0
252 -88 0
-254 252 90 89 0
-89 -90 0
254 -90 0
-254 -93 0
-254 -94 0
-94 -92 0
-91 -92 0
-96 -97 0
-262 98 99 96 97 0
-99 -97 0
-98 -97 0
-99 -98 0
-99 262 0
-100 -103 0
-100 -102 0
-101 -262 0
-101 -103 0
-105 -106 0
-105 269 0
-107 -106 0
-107 269 0
-111 -108 0
-108 -110 0
-109 -269 0
-111 -109 0
-30 -42 0
-30 276 0
-58 -42 0
-58 276 0
-126 -78 0
-78 -114 0
-98 -276 0
-126 -98 0
-26 -36 0
284 -36 0
-68 -26 0
-50 -26 0
-50 -68 0
284 -68 0
-89 -131 0
-89 -121 0
-107 -284 0
-131 -107 0
-31 -23 0
-23 291 0
-31 -43 0
291 -43 0
-79 -291 0
293 -291 0
-79 -59 0
-79 293 0
-99 -135 0
-99 -127 0
-293 -115 0
-135 -115 0
-27 -146 0
-27 301 0
-51 -146 0
-146 -37 0
-51 -37 0
-51 301 0
-301 -90 0
303 -301 0
-69 -90 0
303 -90 0
-108 -147 0
-108 -132 0
-147 -122 0
-24 -32 0
310 -24 0
-32 -44 0
310 -44 0
-80 -310 0
312 -310 0
-80 -60 0
-80 312 0
-100 -136 0
-100 -128 0
-136 -116 0
-28 -38 0
320 -38 0
-70 -28 0
-52 -28 0
-52 -70 0
320 -70 0
-133 -91 0
-91 -123 0
-109 -320 0
-133 -109 0
-33 -45 0
-33 327 0
-61 -45 0
-61 327 0
-81 -129 0
-81 -117 0
-101 -129 0
-75 -65 0
-75 345 0
-65 -56 0
345 -56 0
-345 -41 0
347 -345 0
-48 -41 0
347 -41 0
-30 -347 0
349 -347 0
-30 -35 0
-30 349 0
-23 -349 0
-349 -146 0
-23 -146 0
-86 -76 0
-86 366 0
-66 -76 0
-66 366 0
-366 -49 0
368 -366 0
-49 -57 0
368 -49 0
-368 -36 0
370 -368 0
-36 -42 0
370 -36 0
-27 -370 0
-370 -24 0
-27 -24 0
-96 -87 0
-96 387 0
-77 -87 0
387 -77 0
-58 -387 0
389 -387 0
-58 -67 0
-58 389 0
-389 -43 0
-389 391 0
-50 -43 0
391 -43 0
-391 -32 0
-391 -28 0
-28 -32 0
-105 -97 0
-88 -97 0
-105 -88 0
408 -88 0
-408 -68 0
410 -408 0
-78 -68 0
410 -68 0
-51 -410 0
-410 412 0
-51 -59 0
-51 412 0
-412 -38 0
-412 -33 0
-33 -38 0
-113 -106 0
-98 -106 0
-98 -113 0
-98 429 0
-79 -429 0
431 -429 0
-89 -79 0
-79 431 0
-431 -60 0
-431 433 0
-69 -60 0
433 -60 0
-433 -45 0
-433 -39 0
-45 -39 0
-114 -120 0
-107 -114 0
-107 -120 0
-107 450 0
-90 -450 0
452 -450 0
-99 -90 0
-90 452 0
-70 -452 0
454 -452 0
-80 -70 0
-70 454 0
-454 -53 0
-454 -46 0
-53 -46 0
-126 -121 0
-121 -115 0
-126 -115 0
471 -115 0
-100 -471 0
-471 473 0
-100 -108 0
-100 473 0
-81 -473 0
-473 475 0
-91 -81 0
-81 475 0
-475 -62 0
-54 -475 0
-54 -62 0
-131 -127 0
-131 492 0
-122 -127 0
492 -122 0
-492 -109 0
494 -492 0
-109 -116 0
494 -109 0
-494 -92 0
-494 496 0
-101 -92 0
496 -92 0
-496 -72 0
-496 -63 0
-63 -72 0
-132 -135 0
-132 -128 0
-135 -128 0
513 -128 0
-513 -117 0
-513 515 0
-117 -123 0
515 -117 0
-515 -102 0
-515 517 0
-102 -110 0
517 -102 0
-83 -517 0
-73 -517 0
-73 -83 0
-147 -136 0
-147 534 0
-133 -136 0
-133 534 0
-534 -124 0
536 -534 0
-129 -124 0
536 -124 0
-111 -536 0
538 -536 0
-111 -118 0
-111 538 0
-538 -94 0
-538 -84 0
-103 -94 0
-75 -86 0
-75 555 0
-96 -86 0
-96 555 0
-555 -113 0
-555 557 0
-105 -113 0
557 -113 0
-126 -557 0
-557 559 0
-126 -120 0
-126 559 0
-135 -559 0
-147 -559 0
-131 -135 0
-65 -76 0
-65 576 0
-76 -87 0
576 -87 0
-576 -106 0
578 -576 0
-97 -106 0
578 -106 0
-578 -121 0
-578 580 0
-114 -121 0
580 -121 0
-132 -580 0
-580 -136 0
-132 -127 0
-66 -56 0
597 -56 0
-66 -77 0
597 -77 0
-98 -597 0
599 -597 0
-98 -88 0
-98 599 0
-599 -115 0
-599 601 0
-107 -115 0
601 -115 0
-601 -128 0
-133 -601 0
-122 -128 0
-48 -57 0
-48 618 0
-57 -67 0
618 -67 0
-89 -618 0
620 -618 0
-89 -78 0
-89 620 0
-108 -620 0
-620 622 0
-108 -99 0
-108 622 0
-622 -123 0
-129 -622 0
-123 -116 0
-49 -41 0
639 -41 0
-58 -49 0
-58 639 0
-79 -639 0
641 -639 0
-79 -68 0
-79 641 0
-100 -641 0
643 -641 0
-100 -90 0
-100 643 0
-643 -117 0
-643 -124 0
-109 -117 0
-42 -35 0
660 -35 0
-50 -42 0
-50 660 0
-69 -660 0
-660 662 0
-59 -69 0
-69 662 0
-91 -662 0
664 -662 0
-91 -80 0
-91 664 0
-664 -110 0
-664 -118 0
-101 -110 0
-30 -36 0
681 -30 0
-43 -36 0
681 -43 0
-681 -60 0
683 -681 0
-51 -60 0
683 -60 0
-683 -81 0
-683 685 0
-81 -70 0
685 -81 0
-685 -102 0
-111 -685 0
-102 -92 0
-31 -26 0
702 -26 0
-31 -37 0
702 -37 0
-702 -52 0
-702 704 0
-52 -44 0
-52 704 0
-704 -71 0
-704 706 0
-61 -71 0
706 -71 0
-706 -93 0
-103 -706 0
-82 -93 0
-27 -23 0
723 -23 0
-27 -32 0
723 -32 0
-723 -45 0
-723 725 0
-45 -38 0
725 -45 0
-725 -62 0
-725 727 0
-62 -53 0
727 -62 0
-727 -83 0
-94 -727 0
-83 -72 0
-146 -24 0
-146 744 0
-28 -24 0
-28 744 0
-744 -39 0
746 -744 0
-33 -39 0
746 -39 0
-54 -746 0
-746 748 0
-54 -46 0
-54 748 0
-73 -748 0
-84 -748 0
-73 -63 0
